p cnf 52 46
-1 46 0 
-2 24 43 46 0 
-3 30 32 46 0 
-4 -5 36 -6 46 0 
-6 46 0 
-7 46 0 
-8 10 46 0 
-9 46 0 
-10 8 46 0 
-11 15 46 0 
-12 14 35 46 0 
-13 46 0 
-14 12 35 46 0 
-15 11 46 0 
-16 46 0 
-17 46 0 
-18 22 46 0 
-19 31 46 0 
-20 46 0 
-21 47 0 
-22 18 -23 46 0 
-24 2 43 46 0 
-13 -25 46 0 
-26 46 0 
-4 46 0 
-27 46 0 
-28 -6 48 -46 0 
-28 -25 49 -46 0 
-4 -5 36 -29 46 0 
-30 3 32 46 0 
-31 19 50 -46 0 
-32 3 30 46 0 
-33 51 -46 0 
-34 -35 12 14 52 -46 0 
-34 -36 5 -31 19 51 -46 0 
-34 -37 -35 12 14 52 -46 0 
-34 52 -46 0 
-34 50 -46 0 
-12 14 35 -25 46 0 
-38 46 0 
-39 -40 46 0 
-41 46 0 
-42 46 0 
-43 2 24 46 0 
-44 -45 46 0 
-8 10 -26 46 0 
